% From JaCoP's nonogramRepository/data047.nin
 rows = 20;
 row_rule_len = 3;
 row_rules = array2d(1..rows, 1..row_rule_len, 
[
 0,0,5,
 0,0,5,
 0,0,7,
 0,0,11,
 0,0,13,
 0,1,12,
 0,0,17,
 0,7,6,
 0,8,4,
 3,2,4,
 3,2,4,
 2,1,4,
 0,1,4,
 0,1,3,
 0,3,5,
 0,3,5,
 0,0,6,
 0,0,4,
 0,0,3,
 0,0,3
]);

 cols = 20;
 col_rule_len = 4;
 col_rules = array2d(1..cols, 1..col_rule_len, 
[
 0,0,0,1,
 0,0,0,2,
 0,0,0,2,
 0,0,0,4,
 0,0,2,3,
 0,0,0,6,
 0,0,0,6,
 5,2,1,1,
 5,3,2,2,
 0,5,3,6,
 6,1,2,4,
 7,1,1,2,
 0,7,1,3,
 0,8,2,3,
 0,2,5,7,
 0,1,5,2,
 0,0,0,11,
 0,0,0,9,
 0,0,0,7,
 0,0,0,4
]);

